#######################################
### Exact MIP solver for the HHCRSP ###
#######################################
-- Instance file: new-instances/HHCRSP_50_10_66_1.2_C_RC.txt
-- Max threads: 4
-- Time limit: 999999 seconds
-- Use initial solution: No
Trivial flow violations prevented generating 5622 variables.
Model exported.
Version identifier: 20.1.0.0 | 2020-11-10 | 9bedb6d68
CPXPARAM_Threads                                 4
CPXPARAM_TimeLimit                               999999
Parallel mode: deterministic, using up to 4 threads for concurrent optimization:
 * Starting dual Simplex on 1 thread...
 * Starting Barrier on 3 threads...
Tried aggregator 1 time.
LP Presolve eliminated 1494 rows and 469 columns.
Reduced LP has 8322 rows, 8106 columns, and 68035 nonzeros.
Presolve time = 0.04 sec. (19.85 ticks)
Symmetry aggregator did 8820 additional substitutions.

Iteration log . . .
Iteration:     1   Dual objective     =             0.000000
Iteration:   176   Dual objective     =           103.680227

Dual crossover.
  Dual:  Fixing 71 variables.
       70 DMoves:  Infeasibility  1.57096615e-14  Objective  1.03682270e+02
        0 DMoves:  Infeasibility  9.49241258e-15  Objective  1.03682270e+02
  Dual:  Pushed 1, exchanged 70.
  Primal:  Fixing 51 variables.
       50 PMoves:  Infeasibility  2.22044605e-16  Objective  1.03682270e+02
        0 PMoves:  Infeasibility  1.11022302e-16  Objective  1.03682270e+02
  Primal:  Pushed 32, exchanged 19.

Dual simplex solved model.


Solution status from MIP model:
-- Processing time: 0.068 sec.
-- Memory used: 73.6162 MB
-- Best bound: inf
-- Obj value: 103.682
-- Gap: inf%
-- Total distance: 311.047
-- Total tardiness: 0
-- Largest tardiness: 0
